p cnf 14 24
14 13 -8 0
-14 -11 2 0
14 11 1 0
14 -10 7 0
14 -9 8 0
13 11 8 0
-13 -11 -1 0
13 10 6 0
13 -10 6 0
13 7 -3 0
13 -7 3 0
-12 -11 -2 0
12 -8 -6 0
-12 8 -2 0
11 10 -4 0
-11 -8 -2 0
11 -6 -2 0
11 -5 -1 0
10 7 -5 0
9 5 4 0
-8 3 2 0
7 5 3 0
-7 5 1 0
7 3 1 0
